examples/orsi-2019/pack.col
x[1]
x[2]
y[1]
y[2]
